(declare-const |i'| Int)
(declare-const max Int)
(declare-const |j'| Int)
(assert (exists ((tr?1 Int) (tr?2 Int) (j?3 Int) (i?4 Int))
         (and (<= (- i?4) 0) (<= (+ (- max) 1) 0) (= (+ j?3 i?4 -4) 0)
                (= (+ max -5) 0) (<= (+ (- max) i?4 1) 0)
                (= (+ (- tr?1) tr?2) 0) (= (+ |j'| (- j?3) 1) 0)
                (= (+ |i'| (- i?4) -1) 0))))
(check-sat)
